-1 29 62 45 56 70 58 50 36 44 1 78 60 62 96 
29 -1 50 32 84 19 23 14 29 71 28 43 21 18 94 
62 50 -1 97 78 96 47 15 96 89 19 78 99 94 22 
45 32 97 -1 28 16 51 79 82 88 2 53 88 54 62 
56 84 78 28 -1 40 48 21 1 37 42 17 41 36 12 
70 19 96 16 40 -1 40 22 26 49 52 30 2 47 75 
58 23 47 51 48 40 -1 79 63 32 39 20 25 77 38 
50 14 15 79 21 22 79 -1 44 39 50 61 45 32 67 
36 29 96 82 1 26 63 44 -1 38 92 82 25 95 65 
44 71 89 88 37 49 32 39 38 -1 38 33 97 61 20 
1 28 19 2 42 52 39 50 92 38 -1 79 27 57 97 
78 43 78 53 17 30 20 61 82 33 79 -1 15 31 18 
60 21 99 88 41 2 25 45 25 97 27 15 -1 31 25 
62 18 94 54 36 47 77 32 95 61 57 31 31 -1 38 
96 94 22 62 12 75 38 67 65 20 97 18 25 38 -1 
